
Gurobi 11.0.3 (linux64) logging started Fri Nov 22 21:43:37 2024

Set parameter LogFile to value "/home/yihong/Coding/OR_SUC/SUC_results_bigM100000_thread4/case24_ieee_rts_theta0.1_epsilon0.025_gurobi_seed1130000_num_gen100_N_WDR100_load_scaling_factor1_proposed_T16quadra_cost.txt"
Set parameter TimeLimit to value 3600
Gurobi Optimizer version 11.0.3 build v11.0.3rc0 (linux64 - "Ubuntu 20.04.6 LTS")

CPU model: AMD EPYC 7532 32-Core Processor, instruction set [SSE2|AVX|AVX2]
Thread count: 64 physical cores, 128 logical processors, using up to 4 threads

Optimize a model with 34462 rows, 19941 columns and 471930 nonzeros
Model fingerprint: 0xa55702ba
Model has 1600 quadratic constraints
Variable types: 18341 continuous, 1600 integer (1600 binary)
Coefficient statistics:
  Matrix range     [3e-04, 2e+03]
  QMatrix range    [2e-03, 8e-03]
  QLMatrix range   [3e-01, 6e+01]
  Objective range  [1e+00, 1e+00]
  Bounds range     [1e+00, 1e+00]
  RHS range        [1e+00, 9e+03]
Presolve removed 27943 rows and 8674 columns
Presolve time: 0.16s
Presolved: 6519 rows, 11267 columns, 42917 nonzeros
Presolved model has 1600 quadratic constraint(s)
Variable types: 9667 continuous, 1600 integer (1600 binary)

Root relaxation: objective 2.611129e+04, 5036 iterations, 0.11 seconds (0.15 work units)

    Nodes    |    Current Node    |     Objective Bounds      |     Work
 Expl Unexpl |  Obj  Depth IntInf | Incumbent    BestBd   Gap | It/Node Time

H    0     0                    474292.46354 26111.2903  94.5%     -    0s
*    0     0               0    474292.46354 26111.2903  94.5%     -    0s
     0     0 251138.264    0  449 474292.464 251138.264  47.0%     -    0s
     0     0 425696.830    0  146 474292.464 425696.830  10.2%     -    0s
     0     0 425801.763    0   23 474292.464 425801.763  10.2%     -    0s
     0     0 425802.575    0   23 474292.464 425802.575  10.2%     -    1s
     0     0 425817.012    0   23 474292.464 425817.012  10.2%     -    1s
     0     0 425817.012    0   23 474292.464 425817.012  10.2%     -    1s
     0     0 425817.012    0   23 474292.464 425817.012  10.2%     -    1s
     0     2 425817.012    0   23 474292.464 425817.012  10.2%     -    1s
H   57    61                    425848.01727 425841.361  0.00%  51.7    2s
*   57    61              16    425848.01727 425841.361  0.00%  51.8    2s

Cutting planes:
  Gomory: 38
  Lift-and-project: 6
  Implied bound: 228
  MIR: 44
  Flow cover: 92
  RLT: 247
  Relax-and-lift: 89

Explored 62 nodes (16532 simplex iterations) in 3.22 seconds (4.51 work units)
Thread count was 4 (of 128 available processors)

Solution count 3: 425848 425848 474292 

Optimal solution found (tolerance 1.00e-03)
Warning: max constraint violation (7.3149e-08) exceeds tolerance
Best objective 4.258480172721e+05, best bound 4.258413605244e+05, gap 0.0016%
